sat
(
(define-fun G () String "ebaeeaacaeecdceeea")
(define-fun F () String "eaabbedbadaabbbdcadcabdaecdaeaa")
(define-fun A () String "aeacaeeaabbedbadaabbbdcadcabdaecdaeaaab")
(define-fun C () String "bdd")
(define-fun D () String "a")
)
